(set-logic QF_S)
(declare-fun _var_0xINPUT_113807_() String)
(declare-fun __woorpje_diseq_pref0_() String)
(declare-fun __woorpje_diseq_suf_l0_() String)
(declare-fun __woorpje_diseq_suf_r0_() String)
(assert (=(str.++ _var_0xINPUT_113807_  "")(str.++ __woorpje_diseq_pref0_  "4" __woorpje_diseq_suf_l0_  "")) )
(assert (=(str.++  "fT9WBW4ODW" "")(str.++ __woorpje_diseq_pref0_  "D" __woorpje_diseq_suf_r0_  "")) )
(check-sat)
